db/data/10051198163095025660152384465727723758.z3.out
-------------------
2500.203738524
